;symbolic execution tree
(push)
(assert (le x0 java.lang.Object))
(check-sat)
(push)
(assert (le x0 java.lang.Object))
(check-sat)
(push)
(assert (le x0 soot.Unit))
(check-sat)
(pop)
(push)
(assert (not (le x0 soot.Unit)))
(check-sat)
(push)
(assert (le x0 soot.Unit))
(check-sat)
(pop)
(push)
(assert (not (le x0 soot.Unit)))
(check-sat)
(pop)
(pop)
(push)
(assert (not (le x0 soot.RefType)))
(check-sat)
(pop)
(push)
(assert (le x0 soot.RefType))
(check-sat)
(push)
(assert (le x0 java.lang.Object))
(check-sat)
(push)
(assert (not (le x0 soot.RefType)))
(check-sat)
(pop)
(push)
(assert (le x0 soot.RefType))
(check-sat)
(pop)
(push)
(assert (not (le x0 soot.RefType)))
(check-sat)
(pop)
(push)
(assert (le x0 soot.RefType))
(check-sat)
(pop)
(pop)
(push)
(assert (not (le x0 java.lang.Object)))
(check-sat)
(pop)
(push)
(assert (le x0 java.lang.Object))
(check-sat)
(pop)
(push)
(assert (not (le x0 java.lang.Object)))
(check-sat)
(pop)
(push)
(assert (le x0 java.lang.Object))
(check-sat)
(push)
(assert (le x0 soot.util.Numberable))
(check-sat)
(pop)
(push)
(assert (not (le x0 soot.util.Numberable)))
(check-sat)
(pop)
(pop)
(push)
(assert (not (le x0 java.lang.Object)))
(check-sat)
(pop)
(push)
(assert (le x0 java.lang.Object))
(check-sat)
(push)
(assert (not (le x0 soot.RefType)))
(check-sat)
(pop)
(push)
(assert (le x0 soot.RefType))
(check-sat)
(pop)
(pop)
(push)
(assert (not (le x0 java.lang.Object)))
(check-sat)
(pop)
(push)
(assert (le x0 java.lang.Object))
(check-sat)
(push)
(assert (not (le x0 soot.RefType)))
(check-sat)
(pop)
(push)
(assert (le x0 soot.RefType))
(check-sat)
(push)
(assert (le x0 java.lang.Object))
(check-sat)
(pop)
(push)
(assert (not (le x0 java.lang.Object)))
(check-sat)
(pop)
(pop)
(push)
(assert (not (le x0 soot.RefType)))
(check-sat)
(pop)
(push)
(assert (le x0 soot.RefType))
(check-sat)
(pop)
(push)
(assert (not (le x0 soot.RefType)))
(check-sat)
(pop)
(push)
(assert (le x0 soot.RefType))
(check-sat)
(pop)
(pop)
(push)
(assert (not (le x0 java.lang.Object)))
(check-sat)
(pop)
(push)
(assert (le x0 java.lang.Object))
(check-sat)
(pop)
(push)
(assert (not (le x0 java.lang.Object)))
(check-sat)
(pop)
(pop)
(push)
(assert (not (le x0 soot.RefType)))
(check-sat)
(pop)
(push)
(assert (le x0 soot.RefType))
(check-sat)
(push)
(assert (le x0 java.lang.Object))
(check-sat)
(pop)
(push)
(assert (not (le x0 java.lang.Object)))
(check-sat)
(pop)
(push)
(assert (le x0 java.lang.Object))
(check-sat)
(push)
(assert (not (le x0 soot.RefType)))
(check-sat)
(pop)
(push)
(assert (le x0 soot.RefType))
(check-sat)
(pop)
(push)
(assert (not (le x0 soot.RefType)))
(check-sat)
(pop)
(push)
(assert (le x0 soot.RefType))
(check-sat)
(pop)
(pop)
(push)
(assert (not (le x0 java.lang.Object)))
(check-sat)
(pop)
(pop)
(push)
(assert (not (le x0 soot.RefType)))
(check-sat)
(push)
(assert (le x0 java.lang.Object))
(check-sat)
(pop)
(push)
(assert (not (le x0 java.lang.Object)))
(check-sat)
(pop)
(push)
(assert (le x0 java.lang.Object))
(check-sat)
(push)
(assert (not (le x0 soot.RefType)))
(check-sat)
(pop)
(push)
(assert (le x0 soot.RefType))
(check-sat)
(pop)
(pop)
(push)
(assert (not (le x0 java.lang.Object)))
(check-sat)
(pop)
(push)
(assert (le x0 java.lang.Object))
(check-sat)
(push)
(assert (not (le x0 soot.RefType)))
(check-sat)
(pop)
(push)
(assert (le x0 soot.RefType))
(check-sat)
(pop)
(push)
(assert (le x0 java.lang.Object))
(check-sat)
(pop)
(push)
(assert (not (le x0 java.lang.Object)))
(check-sat)
(pop)
(push)
(assert (le x0 java.lang.Object))
(check-sat)
(push)
(assert (not (le x0 soot.RefType)))
(check-sat)
(pop)
(push)
(assert (le x0 soot.RefType))
(check-sat)
(pop)
(pop)
(push)
(assert (not (le x0 java.lang.Object)))
(check-sat)
(pop)
(pop)
(push)
(assert (not (le x0 java.lang.Object)))
(check-sat)
(pop)
(pop)
(push)
(assert (le x0 soot.RefType))
(check-sat)
(push)
(assert (le x0 java.lang.Object))
(check-sat)
(push)
(assert (not (le x0 soot.RefType)))
(check-sat)
(pop)
(push)
(assert (le x0 soot.RefType))
(check-sat)
(pop)
(pop)
(push)
(assert (not (le x0 java.lang.Object)))
(check-sat)
(pop)
(pop)
(push)
(assert (not (le x0 soot.RefType)))
(check-sat)
(push)
(assert (le x0 java.lang.Object))
(check-sat)
(pop)
(push)
(assert (not (le x0 java.lang.Object)))
(check-sat)
(pop)
(push)
(assert (le x0 java.lang.Object))
(check-sat)
(push)
(assert (not (le x0 soot.RefType)))
(check-sat)
(push)
(assert (le x0 java.lang.Object))
(check-sat)
(pop)
(push)
(assert (not (le x0 java.lang.Object)))
(check-sat)
(pop)
(push)
(assert (le x0 java.lang.Object))
(check-sat)
(pop)
(push)
(assert (not (le x0 java.lang.Object)))
(check-sat)
(pop)
(pop)
(push)
(assert (le x0 soot.RefType))
(check-sat)
(pop)
(pop)
(push)
(assert (not (le x0 java.lang.Object)))
(check-sat)
(pop)
(pop)
(push)
(assert (le x0 soot.RefType))
(check-sat)
(push)
(assert (le x0 java.lang.Object))
(check-sat)
(push)
(assert (not (le x0 soot.RefType)))
(check-sat)
(pop)
(push)
(assert (le x0 soot.RefType))
(check-sat)
(pop)
(push)
(assert (le x0 soot.util.Numberable))
(check-sat)
(pop)
(push)
(assert (not (le x0 soot.util.Numberable)))
(check-sat)
(pop)
(push)
(assert (not (le x0 soot.RefType)))
(check-sat)
(pop)
(push)
(assert (le x0 soot.RefType))
(check-sat)
(pop)
(push)
(assert (not (le x0 soot.RefType)))
(check-sat)
(pop)
(push)
(assert (le x0 soot.RefType))
(check-sat)
(pop)
(pop)
(push)
(assert (not (le x0 java.lang.Object)))
(check-sat)
(pop)
(push)
(assert (le x0 java.lang.Object))
(check-sat)
(pop)
(push)
(assert (not (le x0 java.lang.Object)))
(check-sat)
(pop)
(push)
(assert (le x0 java.lang.Object))
(check-sat)
(push)
(assert (not (le x0 soot.RefType)))
(check-sat)
(pop)
(push)
(assert (le x0 soot.RefType))
(check-sat)
(pop)
(pop)
(push)
(assert (not (le x0 java.lang.Object)))
(check-sat)
(pop)
(pop)
(push)
(assert (not (le x0 soot.RefType)))
(check-sat)
(push)
(assert (le x0 java.lang.Object))
(check-sat)
(push)
(assert (le x0 java.lang.Object))
(check-sat)
(pop)
(push)
(assert (not (le x0 java.lang.Object)))
(check-sat)
(pop)
(push)
(assert (le x0 soot.util.Numberable))
(check-sat)
(push)
(assert (le x0 soot.util.Numberable))
(check-sat)
(pop)
(push)
(assert (not (le x0 soot.util.Numberable)))
(check-sat)
(pop)
(pop)
(push)
(assert (not (le x0 soot.util.Numberable)))
(check-sat)
(pop)
(pop)
(push)
(assert (not (le x0 java.lang.Object)))
(check-sat)
(pop)
(push)
(assert (le x0 java.lang.Object))
(check-sat)
(pop)
(push)
(assert (not (le x0 java.lang.Object)))
(check-sat)
(pop)
(push)
(assert (le x0 java.lang.Object))
(check-sat)
(push)
(assert (not (le x0 soot.RefType)))
(check-sat)
(pop)
(push)
(assert (le x0 soot.RefType))
(check-sat)
(pop)
(pop)
(push)
(assert (not (le x0 java.lang.Object)))
(check-sat)
(pop)
(push)
(assert (le x0 java.lang.Object))
(check-sat)
(pop)
(push)
(assert (not (le x0 java.lang.Object)))
(check-sat)
(pop)
(pop)
(push)
(assert (le x0 soot.RefType))
(check-sat)
(push)
(assert (le x0 java.lang.Object))
(check-sat)
(pop)
(push)
(assert (not (le x0 java.lang.Object)))
(check-sat)
(pop)
(push)
(assert (le x0 java.lang.Object))
(check-sat)
(push)
(assert (not (le x0 soot.RefType)))
(check-sat)
(pop)
(push)
(assert (le x0 soot.RefType))
(check-sat)
(pop)
(pop)
(push)
(assert (not (le x0 java.lang.Object)))
(check-sat)
(pop)
(push)
(assert (le x0 java.lang.Object))
(check-sat)
(pop)
(push)
(assert (not (le x0 java.lang.Object)))
(check-sat)
(pop)
(push)
(assert (le x0 java.lang.Object))
(check-sat)
(pop)
(push)
(assert (not (le x0 java.lang.Object)))
(check-sat)
(pop)
(pop)
(push)
(assert (le x0 java.lang.Object))
(check-sat)
(push)
(assert (not (le x0 soot.RefType)))
(check-sat)
(pop)
(push)
(assert (le x0 soot.RefType))
(check-sat)
(push)
(assert (le x0 java.lang.Object))
(check-sat)
(pop)
(push)
(assert (not (le x0 java.lang.Object)))
(check-sat)
(pop)
(push)
(assert (le x0 java.lang.Object))
(check-sat)
(pop)
(push)
(assert (not (le x0 java.lang.Object)))
(check-sat)
(pop)
(pop)
(push)
(assert (= x0 soot.util.Cons))
(check-sat)
(pop)
(push)
(assert (not (= x0 soot.util.Cons)))
(check-sat)
(pop)
(pop)
(push)
(assert (not (le x0 java.lang.Object)))
(check-sat)
(pop)
(push)
(assert (not (le x0 soot.RefType)))
(check-sat)
(pop)
(push)
(assert (le x0 soot.RefType))
(check-sat)
(pop)
(push)
(assert (not (le x0 soot.RefType)))
(check-sat)
(pop)
(push)
(assert (le x0 soot.RefType))
(check-sat)
(pop)
(push)
(assert (le x0 soot.SootMethod))
(check-sat)
(pop)
(push)
(assert (not (le x0 soot.SootMethod)))
(check-sat)
(push)
(assert (le x0 soot.SootMethod))
(check-sat)
(pop)
(push)
(assert (not (le x0 soot.SootMethod)))
(check-sat)
(pop)
(push)
(assert (le x0 soot.tagkit.AbstractHost))
(check-sat)
(push)
(assert (le x0 soot.SootField))
(check-sat)
(pop)
(push)
(assert (not (le x0 soot.SootField)))
(check-sat)
(pop)
(pop)
(push)
(assert (not (le x0 soot.tagkit.AbstractHost)))
(check-sat)
(push)
(assert (le x0 soot.tagkit.AbstractHost))
(check-sat)
(pop)
(push)
(assert (not (le x0 soot.tagkit.AbstractHost)))
(check-sat)
(pop)
(pop)
(push)
(assert (le x0 soot.SootMethod))
(check-sat)
(pop)
(push)
(assert (not (le x0 soot.SootMethod)))
(check-sat)
(push)
(assert (le x0 soot.SootMethod))
(check-sat)
(pop)
(push)
(assert (not (le x0 soot.SootMethod)))
(check-sat)
(pop)
(push)
(assert (le x0 soot.SootMethod))
(check-sat)
(pop)
(push)
(assert (not (le x0 soot.SootMethod)))
(check-sat)
(pop)
(pop)
(push)
(assert (le x0 soot.SootMethod))
(check-sat)
(pop)
(push)
(assert (not (le x0 soot.SootMethod)))
(check-sat)
(pop)
(push)
(assert (le x0 soot.SootMethod))
(check-sat)
(pop)
(push)
(assert (not (le x0 soot.SootMethod)))
(check-sat)
(push)
(assert (le x0 soot.SootMethod))
(check-sat)
(pop)
(push)
(assert (not (le x0 soot.SootMethod)))
(check-sat)
(pop)
(pop)
(pop)
(push)
(assert (not (le x0 soot.RefType)))
(check-sat)
(pop)
(push)
(assert (le x0 soot.RefType))
(check-sat)
(push)
(assert (not (le x0 soot.ArrayType)))
(check-sat)
(pop)
(push)
(assert (le x0 soot.ArrayType))
(check-sat)
(pop)
(push)
(assert (le x0 java.lang.Object))
(check-sat)
(push)
(assert (le x0 soot.toolkits.scalar.FlowSet))
(check-sat)
(pop)
(push)
(assert (not (le x0 soot.toolkits.scalar.FlowSet)))
(check-sat)
(pop)
(pop)
(push)
(assert (not (le x0 java.lang.Object)))
(check-sat)
(pop)
(pop)
(push)
(assert (not (le x0 soot.RefType)))
(check-sat)
(pop)
(push)
(assert (le x0 soot.RefType))
(check-sat)
(pop)
(push)
(assert (not (le x0 soot.RefType)))
(check-sat)
(push)
(assert (le x0 java.lang.Object))
(check-sat)
(pop)
(push)
(assert (not (le x0 java.lang.Object)))
(check-sat)
(pop)
(push)
(assert (le x0 java.lang.Object))
(check-sat)
(pop)
(push)
(assert (not (le x0 java.lang.Object)))
(check-sat)
(pop)
(pop)
(push)
(assert (le x0 soot.RefType))
(check-sat)
(pop)
(push)
(assert (le x0 java.util.HashSet))
(check-sat)
(push)
(assert (le x0 java.util.HashSet))
(check-sat)
(pop)
(push)
(assert (not (le x0 java.util.HashSet)))
(check-sat)
(pop)
(push)
(assert (le x0 java.util.HashSet))
(check-sat)
(pop)
(push)
(assert (not (le x0 java.util.HashSet)))
(check-sat)
(pop)
(push)
(assert (le x0 java.util.HashSet))
(check-sat)
(push)
(assert (le x0 java.util.HashSet))
(check-sat)
(push)
(assert (le x0 java.util.HashSet))
(check-sat)
(pop)
(push)
(assert (not (le x0 java.util.HashSet)))
(check-sat)
(pop)
(pop)
(push)
(assert (not (le x0 java.util.HashSet)))
(check-sat)
(pop)
(pop)
(push)
(assert (not (le x0 java.util.HashSet)))
(check-sat)
(pop)
(push)
(assert (le x0 java.util.HashSet))
(check-sat)
(pop)
(push)
(assert (not (le x0 java.util.HashSet)))
(check-sat)
(pop)
(push)
(assert (le x0 java.util.HashSet))
(check-sat)
(pop)
(push)
(assert (not (le x0 java.util.HashSet)))
(check-sat)
(pop)
(pop)
(push)
(assert (not (le x0 java.util.HashSet)))
(check-sat)
(push)
(assert (le x0 java.util.HashSet))
(check-sat)
(pop)
(push)
(assert (not (le x0 java.util.HashSet)))
(check-sat)
(pop)
(pop)
(push)
(assert (le x0 java.lang.Object))
(check-sat)
(pop)
(push)
(assert (not (le x0 java.lang.Object)))
(check-sat)
(pop)
(push)
(assert (not (le x0 soot.RefType)))
(check-sat)
(push)
(assert (le x0 java.lang.Object))
(check-sat)
(pop)
(push)
(assert (not (le x0 java.lang.Object)))
(check-sat)
(pop)
(pop)
(push)
(assert (le x0 soot.RefType))
(check-sat)
(push)
(assert (le x0 java.lang.Object))
(check-sat)
(pop)
(push)
(assert (not (le x0 java.lang.Object)))
(check-sat)
(pop)
(push)
(assert (le x0 java.lang.Object))
(check-sat)
(push)
(assert (not (le x0 soot.RefType)))
(check-sat)
(pop)
(push)
(assert (le x0 soot.RefType))
(check-sat)
(push)
(assert (le x0 java.lang.Object))
(check-sat)
(pop)
(push)
(assert (not (le x0 java.lang.Object)))
(check-sat)
(pop)
(pop)
(pop)
(push)
(assert (not (le x0 java.lang.Object)))
(check-sat)
(pop)
(push)
(assert (le x0 java.lang.Object))
(check-sat)
(push)
(assert (not (le x0 soot.RefType)))
(check-sat)
(pop)
(push)
(assert (le x0 soot.RefType))
(check-sat)
(pop)
(pop)
(push)
(assert (not (le x0 java.lang.Object)))
(check-sat)
(pop)
(push)
(assert (le x0 java.lang.Object))
(check-sat)
(pop)
(push)
(assert (not (le x0 java.lang.Object)))
(check-sat)
(pop)
(push)
(assert (le x0 java.lang.Object))
(check-sat)
(push)
(assert (not (le x0 soot.RefType)))
(check-sat)
(pop)
(push)
(assert (le x0 soot.RefType))
(check-sat)
(push)
(assert (le x0 java.lang.Object))
(check-sat)
(pop)
(push)
(assert (not (le x0 java.lang.Object)))
(check-sat)
(pop)
(pop)
(push)
(assert (not (le x0 soot.RefType)))
(check-sat)
(pop)
(push)
(assert (le x0 soot.RefType))
(check-sat)
(pop)
(pop)
(push)
(assert (not (le x0 java.lang.Object)))
(check-sat)
(pop)
(pop)
(push)
(assert (not (le x0 soot.RefType)))
(check-sat)
(pop)
(push)
(assert (le x0 soot.RefType))
(check-sat)
(push)
(assert (le x0 java.lang.Object))
(check-sat)
(pop)
(push)
(assert (not (le x0 java.lang.Object)))
(check-sat)
(pop)
(push)
(assert (le x0 java.lang.Object))
(check-sat)
(pop)
(push)
(assert (not (le x0 java.lang.Object)))
(check-sat)
(pop)
(push)
(assert (le x0 java.lang.Object))
(check-sat)
(push)
(assert (not (le x0 soot.RefType)))
(check-sat)
(pop)
(push)
(assert (le x0 soot.RefType))
(check-sat)
(pop)
(pop)
(push)
(assert (not (le x0 java.lang.Object)))
(check-sat)
(pop)
(push)
(assert (le x0 java.lang.Object))
(check-sat)
(push)
(assert (not (le x0 soot.RefType)))
(check-sat)
(pop)
(push)
(assert (le x0 soot.RefType))
(check-sat)
(push)
(assert (le x0 java.lang.Object))
(check-sat)
(pop)
(push)
(assert (not (le x0 java.lang.Object)))
(check-sat)
(pop)
(push)
(assert (le x0 java.lang.Object))
(check-sat)
(pop)
(push)
(assert (not (le x0 java.lang.Object)))
(check-sat)
(pop)
(pop)
(pop)
(push)
(assert (not (le x0 java.lang.Object)))
(check-sat)
(pop)
(push)
(assert (le x0 java.lang.Object))
(check-sat)
(pop)
(push)
(assert (not (le x0 java.lang.Object)))
(check-sat)
(pop)
(push)
(assert (le x0 java.lang.Object))
(check-sat)
(pop)
(push)
(assert (not (le x0 java.lang.Object)))
(check-sat)
(pop)
(pop)
(push)
(assert (not (le x0 soot.RefType)))
(check-sat)
(push)
(assert (le x0 java.lang.Object))
(check-sat)
(pop)
(push)
(assert (not (le x0 java.lang.Object)))
(check-sat)
(pop)
(pop)
(push)
(assert (le x0 soot.RefType))
(check-sat)
(pop)
(push)
(assert (not (le x0 soot.RefType)))
(check-sat)
(push)
(assert (le x0 java.lang.Object))
(check-sat)
(pop)
(push)
(assert (not (le x0 java.lang.Object)))
(check-sat)
(pop)
(push)
(assert (le x0 java.lang.Object))
(check-sat)
(push)
(assert (not (le x0 soot.RefType)))
(check-sat)
(pop)
(push)
(assert (le x0 soot.RefType))
(check-sat)
(pop)
(push)
(assert (not (le x0 soot.RefType)))
(check-sat)
(pop)
(push)
(assert (le x0 soot.RefType))
(check-sat)
(pop)
(pop)
(push)
(assert (not (le x0 java.lang.Object)))
(check-sat)
(pop)
(push)
(assert (le x0 java.lang.Object))
(check-sat)
(pop)
(push)
(assert (not (le x0 java.lang.Object)))
(check-sat)
(pop)
(push)
(assert (le x0 java.lang.Object))
(check-sat)
(pop)
(push)
(assert (not (le x0 java.lang.Object)))
(check-sat)
(pop)
(push)
(assert (le x0 java.lang.Object))
(check-sat)
(push)
(assert (not (le x0 soot.RefType)))
(check-sat)
(pop)
(push)
(assert (le x0 soot.RefType))
(check-sat)
(pop)
(pop)
(push)
(assert (not (le x0 java.lang.Object)))
(check-sat)
(pop)
(push)
(assert (le x0 java.lang.Object))
(check-sat)
(pop)
(push)
(assert (not (le x0 java.lang.Object)))
(check-sat)
(pop)
(pop)
(push)
(assert (le x0 soot.RefType))
(check-sat)
(push)
(assert (le x0 java.lang.Object))
(check-sat)
(pop)
(push)
(assert (not (le x0 java.lang.Object)))
(check-sat)
(pop)
(push)
(assert (le x0 java.lang.Object))
(check-sat)
(push)
(assert (not (le x0 soot.RefType)))
(check-sat)
(pop)
(push)
(assert (le x0 soot.RefType))
(check-sat)
(pop)
(push)
(assert (le x0 java.lang.Object))
(check-sat)
(pop)
(push)
(assert (not (le x0 java.lang.Object)))
(check-sat)
(pop)
(pop)
(push)
(assert (not (le x0 java.lang.Object)))
(check-sat)
(pop)
(push)
(assert (le x0 java.lang.Object))
(check-sat)
(pop)
(push)
(assert (not (le x0 java.lang.Object)))
(check-sat)
(pop)
(pop)
(pop)
(push)
(assert (not (le x0 java.lang.Object)))
(check-sat)
(push)
(assert (not (le x0 soot.RefType)))
(check-sat)
(pop)
(push)
(assert (le x0 soot.RefType))
(check-sat)
(pop)
(push)
(assert (le x0 soot.jimple.internal.JimpleLocal))
(check-sat)
(pop)
(push)
(assert (not (le x0 soot.jimple.internal.JimpleLocal)))
(check-sat)
(pop)
(push)
(assert (not (le x0 soot.RefType)))
(check-sat)
(pop)
(push)
(assert (le x0 soot.RefType))
(check-sat)
(pop)
(pop)
